c defined variables: 33 34 35 36 37 38 39 40 41 42 43 44 45 46 47 48 49 50 51 52 53 54 55 56 57 58 59 60 61 62 63 64 65 66 67 68 69 70 71 72 73 74 75 76 77 78 79 80 81 82 83 84 85 86 87 88 89 90 91 92 93 94 95 96 97 98 99 100 101 102 103 104 105 106 107 108 109 110 111 112 113 114 115 116 117 118 119 120 121 122 123 124 125 126 127 128 129 130 131 132 133 134 135 136 137 138 139 140 141 142 143 144 145 146 147 148 149 150 151 152 153 154 155 156 157 158 159 160 161 162 163 164 165 166 167 179 180 181 182 183 184 185 186 187 188 189 190 191 192 193 194 195 196 197 198 199 200 201 202 203 204 205 206 207 208 209 210 211 212 213 214 215 216 217 218 219 220 221 222 223 224 225 226 227 228 229 230 231 232 233 234 235 236 237 238 239 240 241 242 243 244 245 246 247 248 249 250 251 252 253 254 255 256 257 258 259 260 261 262 263 264 265 266 267 268 269 270 271 272 273 274 275 276 277 278 279 280 281 282 283 284 285 286 287 288 289 290 291 292 293 294 295 296 297 298 299 300 301 302 303 304 305 309 310 311 312 313 314 315 316 317 
p cnf 1421 2151
a 1 2 3 4 5 6 7 8 9 10 11 12 13 14 15 16 17 18 19 20 21 22 23 24 25 26 27 28 29 30 31 32 171 172 173 174 175 176 177 178 0
e 33 34 35 36 37 38 39 40 41 42 43 44 45 46 47 48 49 50 51 52 53 54 55 56 57 58 59 60 61 62 63 64 65 66 67 68 69 70 71 72 73 74 75 76 77 78 79 80 81 82 83 84 85 86 87 88 89 90 91 92 93 94 95 96 97 98 99 100 101 102 103 104 105 106 107 108 109 110 111 112 113 114 115 116 117 118 119 120 121 122 123 124 125 126 127 128 129 130 131 132 133 134 135 136 137 138 139 140 141 142 143 144 145 146 147 148 149 150 151 152 153 154 155 156 157 158 159 160 161 162 163 164 165 166 167 179 180 181 182 183 184 185 186 187 188 189 190 191 192 193 194 195 196 197 198 199 200 201 202 203 204 205 206 207 208 209 210 211 212 213 214 215 216 217 218 219 220 221 222 223 224 225 226 227 228 229 230 231 232 233 234 235 236 237 238 239 240 241 242 243 244 245 246 247 248 249 250 251 252 253 254 255 256 257 258 259 260 261 262 263 264 265 266 267 268 269 270 271 272 273 274 275 276 277 278 279 280 281 282 283 284 285 286 287 288 289 290 291 292 293 294 295 296 297 298 299 300 301 302 303 304 305 309 310 311 312 313 314 315 316 317 1169 1170 1171 1172 1173 1174 1175 1176 1177 1178 1179 1180 1181 1182 1183 1184 1185 1186 1187 1188 1189 1190 1191 1192 1193 1194 1195 1196 1197 1198 1199 1200 1201 1202 1203 1204 1205 1206 1207 1208 1209 1210 1211 1212 1213 1214 1215 1216 1217 1218 1219 1220 1221 1222 1223 1224 1225 1226 1227 1228 1229 1230 1231 1232 1233 1234 1235 1236 1237 1238 1239 1240 1241 1242 1243 1244 1245 1246 1247 1248 1249 1250 1251 1252 1253 1254 1255 1256 1257 1258 1259 1260 1261 1262 1263 1264 1265 1266 1267 1268 1269 1270 1271 1272 1273 1274 1275 1276 1277 1278 1279 1280 1281 1282 1283 1284 1285 1286 1287 1288 1289 1290 1291 1292 1293 1294 1295 1296 1297 1298 1299 1300 1301 1302 1303 1304 1305 1306 1307 1308 1309 1310 1311 1312 1313 1314 1315 1316 1317 1318 1319 1320 1321 1322 1323 1324 1325 1326 1327 1328 1329 1330 1331 1332 1333 1334 1335 1336 1337 1338 1339 1340 1341 1342 1343 1344 1345 1346 1347 1348 1349 1350 1351 1352 1353 1354 1355 1356 1357 1358 1359 1360 1361 1362 1363 1364 1365 1366 1367 1368 1369 1370 1371 1372 1373 1374 1375 1376 1377 1378 1379 1380 1381 1382 1383 1384 1385 1386 1387 1388 1389 1390 1391 1392 1393 1394 1395 1396 1397 1398 1399 1400 1401 1402 1403 1404 1405 1406 1407 1408 1409 1410 1411 1412 1413 1414 1415 1416 1417 1418 1419 1420 1421 0
d 169 171 172 173 174 175 176 177 0
d 170 178 171 172 173 0
d 168 171 172 173 174 175 176 177 178 0
d 306 1 2 3 4 5 6 7 8 9 10 11 12 13 14 15 16 17 18 19 20 21 22 23 24 25 26 27 28 29 30 31 32 171 172 173 174 175 176 177 178 0
d 307 1 2 3 4 5 6 7 8 9 10 11 12 13 14 15 16 17 18 19 20 21 22 23 24 25 26 27 28 29 30 31 32 171 172 173 174 175 176 177 178 0
d 308 1 2 3 4 5 6 7 8 9 10 11 12 13 14 15 16 17 18 19 20 21 22 23 24 25 26 27 28 29 30 31 32 171 172 173 174 175 176 177 178 0
1169 -33 0
-1169 33 0
1170 -34 0
-1170 34 0
-1171 -35 0
1171 35 0
1172 -36 0
-1172 36 0
1173 -37 0
-1173 37 0
-1174 -38 0
1174 38 0
1175 -39 0
-1175 39 0
1176 -40 0
-1176 40 0
-1177 -41 0
1177 41 0
-12 -42 0
12 42 0
-1178 -43 0
1178 43 0
-11 -44 0
11 44 0
-1179 -45 0
1179 45 0
-10 -46 0
10 46 0
-1180 -47 0
1180 47 0
-9 -48 0
9 48 0
-1181 -49 0
1181 49 0
-49 -50 0
49 50 0
1182 -51 0
-1182 51 0
1184 -52 0
-1184 52 0
1186 -53 0
-1186 53 0
-1189 -54 0
1189 54 0
1190 -55 0
-1190 55 0
1191 -56 0
-1191 56 0
-1192 -57 0
1192 57 0
1193 -58 0
-1193 58 0
1194 -59 0
-1194 59 0
1195 -60 0
-1195 60 0
1196 -61 0
-1196 61 0
-1197 -62 0
1197 62 0
1198 -63 0
-1198 63 0
1199 -64 0
-1199 64 0
-1200 -65 0
1200 65 0
1201 -66 0
-1201 66 0
1202 -67 0
-1202 67 0
-1203 -68 0
1203 68 0
1204 -69 0
-1204 69 0
1205 -70 0
-1205 70 0
-1206 -71 0
1206 71 0
-8 -72 0
8 72 0
-1207 -73 0
1207 73 0
-7 -74 0
7 74 0
-1208 -75 0
1208 75 0
-6 -76 0
6 76 0
-1209 -77 0
1209 77 0
-5 -78 0
5 78 0
-1210 -79 0
1210 79 0
-79 -80 0
79 80 0
1211 -81 0
-1211 81 0
1213 -82 0
-1213 82 0
1215 -83 0
-1215 83 0
-1218 -84 0
1218 84 0
1219 -85 0
-1219 85 0
1220 -86 0
-1220 86 0
-1221 -87 0
1221 87 0
1222 -88 0
-1222 88 0
1223 -89 0
-1223 89 0
1224 -90 0
-1224 90 0
1225 -91 0
-1225 91 0
-1226 -92 0
1226 92 0
1227 -93 0
-1227 93 0
1228 -94 0
-1228 94 0
-1229 -95 0
1229 95 0
1230 -96 0
-1230 96 0
1231 -97 0
-1231 97 0
-1232 -98 0
1232 98 0
1233 -99 0
-1233 99 0
1234 -100 0
-1234 100 0
-1235 -101 0
1235 101 0
-4 -102 0
4 102 0
-1236 -103 0
1236 103 0
-3 -104 0
3 104 0
-1237 -105 0
1237 105 0
-2 -106 0
2 106 0
-1238 -107 0
1238 107 0
-1 -108 0
1 108 0
-1239 -109 0
1239 109 0
-109 -110 0
109 110 0
1240 -111 0
-1240 111 0
1242 -112 0
-1242 112 0
1244 -113 0
-1244 113 0
-1247 -114 0
1247 114 0
1248 -115 0
-1248 115 0
1249 -116 0
-1249 116 0
-1250 -117 0
1250 117 0
1251 -118 0
-1251 118 0
1252 -119 0
-1252 119 0
1253 -120 0
-1253 120 0
1254 -121 0
-1254 121 0
-1255 -122 0
1255 122 0
1256 -123 0
-1256 123 0
1257 -124 0
-1257 124 0
-1258 -125 0
1258 125 0
1259 -126 0
-1259 126 0
1260 -127 0
-1260 127 0
-1261 -128 0
1261 128 0
1262 -129 0
-1262 129 0
1263 -130 0
-1263 130 0
-1264 -131 0
1264 131 0
-16 -132 0
16 132 0
-1265 -133 0
1265 133 0
-15 -134 0
15 134 0
-1266 -135 0
1266 135 0
-14 -136 0
14 136 0
-1267 -137 0
1267 137 0
-13 -138 0
13 138 0
-1268 -139 0
1268 139 0
-139 -140 0
139 140 0
1269 -141 0
-1269 141 0
1271 -142 0
-1271 142 0
1273 -143 0
-1273 143 0
-1276 -144 0
1276 144 0
1277 -145 0
-1277 145 0
1278 -146 0
-1278 146 0
-1279 -147 0
1279 147 0
1280 -148 0
-1280 148 0
1281 -149 0
-1281 149 0
-144 -150 0
144 150 0
-1282 -151 0
1282 151 0
-54 -152 0
54 152 0
-1283 -153 0
1283 153 0
-84 -154 0
84 154 0
-1284 -155 0
1284 155 0
-114 -156 0
114 156 0
-1285 -157 0
1285 157 0
-157 -158 0
157 158 0
1286 -159 0
-1286 159 0
1288 -160 0
-1288 160 0
1290 -161 0
-1290 161 0
-1293 -162 0
1293 162 0
1294 -163 0
-1294 163 0
1295 -164 0
-1295 164 0
-1296 -165 0
1296 165 0
1297 -166 0
-1297 166 0
1298 -167 0
-1298 167 0
1169 -179 0
-1169 179 0
1170 -180 0
-1170 180 0
-1299 -181 0
1299 181 0
1172 -182 0
-1172 182 0
1173 -183 0
-1173 183 0
-1300 -184 0
1300 184 0
1175 -185 0
-1175 185 0
1176 -186 0
-1176 186 0
-1301 -187 0
1301 187 0
-1302 -188 0
1302 188 0
-11 -189 0
11 189 0
-1303 -190 0
1303 190 0
-10 -191 0
10 191 0
-1304 -192 0
1304 192 0
-9 -193 0
9 193 0
-1305 -194 0
1305 194 0
-194 -195 0
194 195 0
1306 -196 0
-1306 196 0
1308 -197 0
-1308 197 0
1310 -198 0
-1310 198 0
-1313 -199 0
1313 199 0
1190 -200 0
-1190 200 0
1191 -201 0
-1191 201 0
-1314 -202 0
1314 202 0
1315 -203 0
-1315 203 0
1316 -204 0
-1316 204 0
1317 -205 0
-1317 205 0
1318 -206 0
-1318 206 0
-1319 -207 0
1319 207 0
1198 -208 0
-1198 208 0
1199 -209 0
-1199 209 0
-1320 -210 0
1320 210 0
1201 -211 0
-1201 211 0
1202 -212 0
-1202 212 0
-1321 -213 0
1321 213 0
1204 -214 0
-1204 214 0
1205 -215 0
-1205 215 0
-1322 -216 0
1322 216 0
-8 -217 0
8 217 0
-1323 -218 0
1323 218 0
-7 -219 0
7 219 0
-1324 -220 0
1324 220 0
-6 -221 0
6 221 0
-1325 -222 0
1325 222 0
-5 -223 0
5 223 0
-1326 -224 0
1326 224 0
-224 -225 0
224 225 0
1327 -226 0
-1327 226 0
1329 -227 0
-1329 227 0
1331 -228 0
-1331 228 0
-1334 -229 0
1334 229 0
1219 -230 0
-1219 230 0
1220 -231 0
-1220 231 0
-1335 -232 0
1335 232 0
1336 -233 0
-1336 233 0
1337 -234 0
-1337 234 0
1338 -235 0
-1338 235 0
1339 -236 0
-1339 236 0
-1340 -237 0
1340 237 0
1227 -238 0
-1227 238 0
1228 -239 0
-1228 239 0
-1341 -240 0
1341 240 0
1230 -241 0
-1230 241 0
1231 -242 0
-1231 242 0
-1342 -243 0
1342 243 0
1233 -244 0
-1233 244 0
1234 -245 0
-1234 245 0
-1343 -246 0
1343 246 0
-4 -247 0
4 247 0
-1344 -248 0
1344 248 0
-3 -249 0
3 249 0
-1345 -250 0
1345 250 0
-2 -251 0
2 251 0
-1346 -252 0
1346 252 0
-1 -253 0
1 253 0
-1347 -254 0
1347 254 0
-254 -255 0
254 255 0
1348 -256 0
-1348 256 0
1350 -257 0
-1350 257 0
1352 -258 0
-1352 258 0
-1355 -259 0
1355 259 0
1248 -260 0
-1248 260 0
1249 -261 0
-1249 261 0
-1356 -262 0
1356 262 0
1357 -263 0
-1357 263 0
1358 -264 0
-1358 264 0
1359 -265 0
-1359 265 0
1360 -266 0
-1360 266 0
-1361 -267 0
1361 267 0
1256 -268 0
-1256 268 0
1257 -269 0
-1257 269 0
-1362 -270 0
1362 270 0
1259 -271 0
-1259 271 0
1260 -272 0
-1260 272 0
-1363 -273 0
1363 273 0
1262 -274 0
-1262 274 0
1263 -275 0
-1263 275 0
-1364 -276 0
1364 276 0
-16 -277 0
16 277 0
-1365 -278 0
1365 278 0
-15 -279 0
15 279 0
-1366 -280 0
1366 280 0
-14 -281 0
14 281 0
-1367 -282 0
1367 282 0
-13 -283 0
13 283 0
-1368 -284 0
1368 284 0
-284 -285 0
284 285 0
1369 -286 0
-1369 286 0
1371 -287 0
-1371 287 0
1373 -288 0
-1373 288 0
-1376 -289 0
1376 289 0
1277 -290 0
-1277 290 0
1278 -291 0
-1278 291 0
-1377 -292 0
1377 292 0
1378 -293 0
-1378 293 0
1379 -294 0
-1379 294 0
-289 -295 0
289 295 0
-1380 -296 0
1380 296 0
-199 -297 0
199 297 0
-1381 -298 0
1381 298 0
-229 -299 0
229 299 0
-1382 -300 0
1382 300 0
-259 -301 0
259 301 0
-1383 -302 0
1383 302 0
1384 -303 0
-1384 303 0
1385 -304 0
-1385 304 0
-1386 -305 0
1386 305 0
1388 -309 0
-1388 309 0
-1395 -310 0
1395 310 0
1400 -311 0
-1400 311 0
-1404 -312 0
1404 312 0
1407 -313 0
-1407 313 0
1410 -314 0
-1410 314 0
1413 -315 0
-1413 315 0
-1418 -316 0
1418 316 0
1421 -317 0
-1421 317 0
-33 -11 0
-33 27 0
11 -27 33 0
-34 11 0
-34 -27 0
-11 27 34 0
-33 35 0
-34 35 0
-35 33 34 0
-36 -10 0
-36 26 0
10 -26 36 0
-37 10 0
-37 -26 0
-10 26 37 0
-36 38 0
-37 38 0
-38 36 37 0
-39 -9 0
-39 25 0
9 -25 39 0
-40 9 0
-40 -25 0
-9 25 40 0
-39 41 0
-40 41 0
-41 39 40 0
-12 -42 0
12 42 0
-42 43 0
-28 43 0
-43 42 28 0
-11 -44 0
11 44 0
-44 45 0
-27 45 0
-45 44 27 0
-10 -46 0
10 46 0
-46 47 0
-26 47 0
-47 46 26 0
-9 -48 0
9 48 0
-48 49 0
-25 49 0
-49 48 25 0
-49 -50 0
49 50 0
-51 -41 0
-51 -47 0
41 47 51 0
-52 -38 0
-52 -41 0
-52 -45 0
38 41 45 52 0
-53 -35 0
-53 -38 0
-53 -41 0
-53 -43 0
35 38 41 43 53 0
-50 54 0
-51 54 0
-52 54 0
-53 54 0
-54 50 51 52 53 0
-55 -12 0
-55 28 0
12 -28 55 0
-56 12 0
-56 -28 0
-12 28 56 0
-55 57 0
-56 57 0
-57 55 56 0
-58 -57 0
-58 -35 0
-58 -38 0
-58 -41 0
57 35 38 41 58 0
-59 -54 0
-59 -58 0
54 58 59 0
-60 -54 0
-60 59 0
54 -59 60 0
-61 54 0
-61 -59 0
-54 59 61 0
-60 62 0
-61 62 0
-62 60 61 0
-63 -7 0
-63 23 0
7 -23 63 0
-64 7 0
-64 -23 0
-7 23 64 0
-63 65 0
-64 65 0
-65 63 64 0
-66 -6 0
-66 22 0
6 -22 66 0
-67 6 0
-67 -22 0
-6 22 67 0
-66 68 0
-67 68 0
-68 66 67 0
-69 -5 0
-69 21 0
5 -21 69 0
-70 5 0
-70 -21 0
-5 21 70 0
-69 71 0
-70 71 0
-71 69 70 0
-8 -72 0
8 72 0
-72 73 0
-24 73 0
-73 72 24 0
-7 -74 0
7 74 0
-74 75 0
-23 75 0
-75 74 23 0
-6 -76 0
6 76 0
-76 77 0
-22 77 0
-77 76 22 0
-5 -78 0
5 78 0
-78 79 0
-21 79 0
-79 78 21 0
-79 -80 0
79 80 0
-81 -71 0
-81 -77 0
71 77 81 0
-82 -68 0
-82 -71 0
-82 -75 0
68 71 75 82 0
-83 -65 0
-83 -68 0
-83 -71 0
-83 -73 0
65 68 71 73 83 0
-80 84 0
-81 84 0
-82 84 0
-83 84 0
-84 80 81 82 83 0
-85 -8 0
-85 24 0
8 -24 85 0
-86 8 0
-86 -24 0
-8 24 86 0
-85 87 0
-86 87 0
-87 85 86 0
-88 -87 0
-88 -65 0
-88 -68 0
-88 -71 0
87 65 68 71 88 0
-89 -84 0
-89 -88 0
84 88 89 0
-90 -84 0
-90 89 0
84 -89 90 0
-91 84 0
-91 -89 0
-84 89 91 0
-90 92 0
-91 92 0
-92 90 91 0
-93 -3 0
-93 19 0
3 -19 93 0
-94 3 0
-94 -19 0
-3 19 94 0
-93 95 0
-94 95 0
-95 93 94 0
-96 -2 0
-96 18 0
2 -18 96 0
-97 2 0
-97 -18 0
-2 18 97 0
-96 98 0
-97 98 0
-98 96 97 0
-99 -1 0
-99 17 0
1 -17 99 0
-100 1 0
-100 -17 0
-1 17 100 0
-99 101 0
-100 101 0
-101 99 100 0
-4 -102 0
4 102 0
-102 103 0
-20 103 0
-103 102 20 0
-3 -104 0
3 104 0
-104 105 0
-19 105 0
-105 104 19 0
-2 -106 0
2 106 0
-106 107 0
-18 107 0
-107 106 18 0
-1 -108 0
1 108 0
-108 109 0
-17 109 0
-109 108 17 0
-109 -110 0
109 110 0
-111 -101 0
-111 -107 0
101 107 111 0
-112 -98 0
-112 -101 0
-112 -105 0
98 101 105 112 0
-113 -95 0
-113 -98 0
-113 -101 0
-113 -103 0
95 98 101 103 113 0
-110 114 0
-111 114 0
-112 114 0
-113 114 0
-114 110 111 112 113 0
-115 -4 0
-115 20 0
4 -20 115 0
-116 4 0
-116 -20 0
-4 20 116 0
-115 117 0
-116 117 0
-117 115 116 0
-118 -117 0
-118 -95 0
-118 -98 0
-118 -101 0
117 95 98 101 118 0
-119 -114 0
-119 -118 0
114 118 119 0
-120 -114 0
-120 119 0
114 -119 120 0
-121 114 0
-121 -119 0
-114 119 121 0
-120 122 0
-121 122 0
-122 120 121 0
-123 -15 0
-123 31 0
15 -31 123 0
-124 15 0
-124 -31 0
-15 31 124 0
-123 125 0
-124 125 0
-125 123 124 0
-126 -14 0
-126 30 0
14 -30 126 0
-127 14 0
-127 -30 0
-14 30 127 0
-126 128 0
-127 128 0
-128 126 127 0
-129 -13 0
-129 29 0
13 -29 129 0
-130 13 0
-130 -29 0
-13 29 130 0
-129 131 0
-130 131 0
-131 129 130 0
-16 -132 0
16 132 0
-132 133 0
-32 133 0
-133 132 32 0
-15 -134 0
15 134 0
-134 135 0
-31 135 0
-135 134 31 0
-14 -136 0
14 136 0
-136 137 0
-30 137 0
-137 136 30 0
-13 -138 0
13 138 0
-138 139 0
-29 139 0
-139 138 29 0
-139 -140 0
139 140 0
-141 -131 0
-141 -137 0
131 137 141 0
-142 -128 0
-142 -131 0
-142 -135 0
128 131 135 142 0
-143 -125 0
-143 -128 0
-143 -131 0
-143 -133 0
125 128 131 133 143 0
-140 144 0
-141 144 0
-142 144 0
-143 144 0
-144 140 141 142 143 0
-145 -16 0
-145 32 0
16 -32 145 0
-146 16 0
-146 -32 0
-16 32 146 0
-145 147 0
-146 147 0
-147 145 146 0
-148 -147 0
-148 -125 0
-148 -128 0
-148 -131 0
147 125 128 131 148 0
-149 -144 0
-149 -148 0
144 148 149 0
-144 -150 0
144 150 0
-150 151 0
-149 151 0
-151 150 149 0
-54 -152 0
54 152 0
-152 153 0
-59 153 0
-153 152 59 0
-84 -154 0
84 154 0
-154 155 0
-89 155 0
-155 154 89 0
-114 -156 0
114 156 0
-156 157 0
-119 157 0
-157 156 119 0
-157 -158 0
157 158 0
-159 -122 0
-159 -155 0
122 155 159 0
-160 -92 0
-160 -122 0
-160 -153 0
92 122 153 160 0
-161 -62 0
-161 -92 0
-161 -122 0
-161 -151 0
62 92 122 151 161 0
-158 162 0
-159 162 0
-160 162 0
-161 162 0
-162 158 159 160 161 0
-163 -144 0
-163 149 0
144 -149 163 0
-164 144 0
-164 -149 0
-144 149 164 0
-163 165 0
-164 165 0
-165 163 164 0
-166 -165 0
-166 -62 0
-166 -92 0
-166 -122 0
165 62 92 122 166 0
-167 -162 0
-167 -166 0
162 166 167 0
-179 -11 0
-179 27 0
11 -27 179 0
-180 11 0
-180 -27 0
-11 27 180 0
-179 181 0
-180 181 0
-181 179 180 0
-182 -10 0
-182 26 0
10 -26 182 0
-183 10 0
-183 -26 0
-10 26 183 0
-182 184 0
-183 184 0
-184 182 183 0
-185 -9 0
-185 25 0
9 -25 185 0
-186 9 0
-186 -25 0
-9 25 186 0
-185 187 0
-186 187 0
-187 185 186 0
-12 188 0
-28 188 0
-188 12 28 0
-11 -189 0
11 189 0
-189 190 0
-27 190 0
-190 189 27 0
-10 -191 0
10 191 0
-191 192 0
-26 192 0
-192 191 26 0
-9 -193 0
9 193 0
-193 194 0
-25 194 0
-194 193 25 0
-194 -195 0
194 195 0
-196 -187 0
-196 -192 0
187 192 196 0
-197 -184 0
-197 -187 0
-197 -190 0
184 187 190 197 0
-198 -181 0
-198 -184 0
-198 -187 0
-198 -188 0
181 184 187 188 198 0
-195 199 0
-196 199 0
-197 199 0
-198 199 0
-199 195 196 197 198 0
-200 -12 0
-200 28 0
12 -28 200 0
-201 12 0
-201 -28 0
-12 28 201 0
-200 202 0
-201 202 0
-202 200 201 0
-203 -202 0
-203 -181 0
-203 -184 0
-203 -187 0
202 181 184 187 203 0
-204 -199 0
-204 -203 0
199 203 204 0
-205 -199 0
-205 204 0
199 -204 205 0
-206 199 0
-206 -204 0
-199 204 206 0
-205 207 0
-206 207 0
-207 205 206 0
-208 -7 0
-208 23 0
7 -23 208 0
-209 7 0
-209 -23 0
-7 23 209 0
-208 210 0
-209 210 0
-210 208 209 0
-211 -6 0
-211 22 0
6 -22 211 0
-212 6 0
-212 -22 0
-6 22 212 0
-211 213 0
-212 213 0
-213 211 212 0
-214 -5 0
-214 21 0
5 -21 214 0
-215 5 0
-215 -21 0
-5 21 215 0
-214 216 0
-215 216 0
-216 214 215 0
-8 -217 0
8 217 0
-217 218 0
-24 218 0
-218 217 24 0
-7 -219 0
7 219 0
-219 220 0
-23 220 0
-220 219 23 0
-6 -221 0
6 221 0
-221 222 0
-22 222 0
-222 221 22 0
-5 -223 0
5 223 0
-223 224 0
-21 224 0
-224 223 21 0
-224 -225 0
224 225 0
-226 -216 0
-226 -222 0
216 222 226 0
-227 -213 0
-227 -216 0
-227 -220 0
213 216 220 227 0
-228 -210 0
-228 -213 0
-228 -216 0
-228 -218 0
210 213 216 218 228 0
-225 229 0
-226 229 0
-227 229 0
-228 229 0
-229 225 226 227 228 0
-230 -8 0
-230 24 0
8 -24 230 0
-231 8 0
-231 -24 0
-8 24 231 0
-230 232 0
-231 232 0
-232 230 231 0
-233 -232 0
-233 -210 0
-233 -213 0
-233 -216 0
232 210 213 216 233 0
-234 -229 0
-234 -233 0
229 233 234 0
-235 -229 0
-235 234 0
229 -234 235 0
-236 229 0
-236 -234 0
-229 234 236 0
-235 237 0
-236 237 0
-237 235 236 0
-238 -3 0
-238 19 0
3 -19 238 0
-239 3 0
-239 -19 0
-3 19 239 0
-238 240 0
-239 240 0
-240 238 239 0
-241 -2 0
-241 18 0
2 -18 241 0
-242 2 0
-242 -18 0
-2 18 242 0
-241 243 0
-242 243 0
-243 241 242 0
-244 -1 0
-244 17 0
1 -17 244 0
-245 1 0
-245 -17 0
-1 17 245 0
-244 246 0
-245 246 0
-246 244 245 0
-4 -247 0
4 247 0
-247 248 0
-20 248 0
-248 247 20 0
-3 -249 0
3 249 0
-249 250 0
-19 250 0
-250 249 19 0
-2 -251 0
2 251 0
-251 252 0
-18 252 0
-252 251 18 0
-1 -253 0
1 253 0
-253 254 0
-17 254 0
-254 253 17 0
-254 -255 0
254 255 0
-256 -246 0
-256 -252 0
246 252 256 0
-257 -243 0
-257 -246 0
-257 -250 0
243 246 250 257 0
-258 -240 0
-258 -243 0
-258 -246 0
-258 -248 0
240 243 246 248 258 0
-255 259 0
-256 259 0
-257 259 0
-258 259 0
-259 255 256 257 258 0
-260 -4 0
-260 20 0
4 -20 260 0
-261 4 0
-261 -20 0
-4 20 261 0
-260 262 0
-261 262 0
-262 260 261 0
-263 -262 0
-263 -240 0
-263 -243 0
-263 -246 0
262 240 243 246 263 0
-264 -259 0
-264 -263 0
259 263 264 0
-265 -259 0
-265 264 0
259 -264 265 0
-266 259 0
-266 -264 0
-259 264 266 0
-265 267 0
-266 267 0
-267 265 266 0
-268 -15 0
-268 31 0
15 -31 268 0
-269 15 0
-269 -31 0
-15 31 269 0
-268 270 0
-269 270 0
-270 268 269 0
-271 -14 0
-271 30 0
14 -30 271 0
-272 14 0
-272 -30 0
-14 30 272 0
-271 273 0
-272 273 0
-273 271 272 0
-274 -13 0
-274 29 0
13 -29 274 0
-275 13 0
-275 -29 0
-13 29 275 0
-274 276 0
-275 276 0
-276 274 275 0
-16 -277 0
16 277 0
-277 278 0
-32 278 0
-278 277 32 0
-15 -279 0
15 279 0
-279 280 0
-31 280 0
-280 279 31 0
-14 -281 0
14 281 0
-281 282 0
-30 282 0
-282 281 30 0
-13 -283 0
13 283 0
-283 284 0
-29 284 0
-284 283 29 0
-284 -285 0
284 285 0
-286 -276 0
-286 -282 0
276 282 286 0
-287 -273 0
-287 -276 0
-287 -280 0
273 276 280 287 0
-288 -270 0
-288 -273 0
-288 -276 0
-288 -278 0
270 273 276 278 288 0
-285 289 0
-286 289 0
-287 289 0
-288 289 0
-289 285 286 287 288 0
-290 -16 0
-290 32 0
16 -32 290 0
-291 16 0
-291 -32 0
-16 32 291 0
-290 292 0
-291 292 0
-292 290 291 0
-293 -292 0
-293 -270 0
-293 -273 0
-293 -276 0
292 270 273 276 293 0
-294 -289 0
-294 -293 0
289 293 294 0
-289 -295 0
289 295 0
-295 296 0
-294 296 0
-296 295 294 0
-199 -297 0
199 297 0
-297 298 0
-204 298 0
-298 297 204 0
-229 -299 0
229 299 0
-299 300 0
-234 300 0
-300 299 234 0
-259 -301 0
259 301 0
-301 302 0
-264 302 0
-302 301 264 0
-303 -289 0
-303 294 0
289 -294 303 0
-304 289 0
-304 -294 0
-289 294 304 0
-303 305 0
-304 305 0
-305 303 304 0
-306 -167 168 0
-306 167 -168 0
306 -167 -168 0
306 167 168 0
-307 -166 170 0
-307 166 -170 0
307 -166 -170 0
307 166 170 0
-308 -162 169 0
-308 162 -169 0
308 -162 -169 0
308 162 169 0
-306 -307 -308 309 0
-309 306 0
-309 307 0
-309 308 0
-207 -171 -310 0
-207 171 310 0
207 -171 310 0
207 171 -310 0
-237 -172 -311 0
-237 172 311 0
237 -172 311 0
237 172 -311 0
-267 -173 -312 0
-267 173 312 0
267 -173 312 0
267 173 -312 0
-296 -174 -313 0
-296 174 313 0
296 -174 313 0
296 174 -313 0
-298 -175 -314 0
-298 175 314 0
298 -175 314 0
298 175 -314 0
-300 -176 -315 0
-300 176 315 0
300 -176 315 0
300 176 -315 0
-302 -177 -316 0
-302 177 316 0
302 -177 316 0
302 177 -316 0
-305 -178 -317 0
-305 178 317 0
305 -178 317 0
305 178 -317 0
310 311 312 313 314 315 316 317 309 0
-11 -1169 0
27 -1169 0
11 -27 1169 0
11 -1170 0
-27 -1170 0
-11 27 1170 0
-33 -1171 0
-34 -1171 0
33 34 1171 0
-10 -1172 0
26 -1172 0
10 -26 1172 0
10 -1173 0
-26 -1173 0
-10 26 1173 0
-36 -1174 0
-37 -1174 0
36 37 1174 0
-9 -1175 0
25 -1175 0
9 -25 1175 0
9 -1176 0
-25 -1176 0
-9 25 1176 0
-39 -1177 0
-40 -1177 0
39 40 1177 0
-28 -1178 0
-42 -1178 0
28 42 1178 0
-27 -1179 0
-44 -1179 0
27 44 1179 0
-26 -1180 0
-46 -1180 0
26 46 1180 0
-25 -1181 0
-48 -1181 0
25 48 1181 0
-41 -1182 0
-47 -1182 0
41 47 1182 0
-38 -1183 0
-41 -1183 0
38 41 1183 0
-45 -1184 0
1183 -1184 0
45 -1183 1184 0
-35 -1185 0
1183 -1185 0
35 -1183 1185 0
-43 -1186 0
1185 -1186 0
43 -1185 1186 0
-50 -1187 0
-51 -1187 0
50 51 1187 0
-52 -1188 0
-53 -1188 0
52 53 1188 0
1187 -1189 0
1188 -1189 0
-1187 -1188 1189 0
-12 -1190 0
28 -1190 0
12 -28 1190 0
12 -1191 0
-28 -1191 0
-12 28 1191 0
-55 -1192 0
-56 -1192 0
55 56 1192 0
-57 -1193 0
1185 -1193 0
57 -1185 1193 0
-54 -1194 0
-58 -1194 0
54 58 1194 0
-54 -1195 0
59 -1195 0
54 -59 1195 0
54 -1196 0
-59 -1196 0
-54 59 1196 0
-60 -1197 0
-61 -1197 0
60 61 1197 0
-7 -1198 0
23 -1198 0
7 -23 1198 0
7 -1199 0
-23 -1199 0
-7 23 1199 0
-63 -1200 0
-64 -1200 0
63 64 1200 0
-6 -1201 0
22 -1201 0
6 -22 1201 0
6 -1202 0
-22 -1202 0
-6 22 1202 0
-66 -1203 0
-67 -1203 0
66 67 1203 0
-5 -1204 0
21 -1204 0
5 -21 1204 0
5 -1205 0
-21 -1205 0
-5 21 1205 0
-69 -1206 0
-70 -1206 0
69 70 1206 0
-24 -1207 0
-72 -1207 0
24 72 1207 0
-23 -1208 0
-74 -1208 0
23 74 1208 0
-22 -1209 0
-76 -1209 0
22 76 1209 0
-21 -1210 0
-78 -1210 0
21 78 1210 0
-71 -1211 0
-77 -1211 0
71 77 1211 0
-68 -1212 0
-71 -1212 0
68 71 1212 0
-75 -1213 0
1212 -1213 0
75 -1212 1213 0
-65 -1214 0
1212 -1214 0
65 -1212 1214 0
-73 -1215 0
1214 -1215 0
73 -1214 1215 0
-80 -1216 0
-81 -1216 0
80 81 1216 0
-82 -1217 0
-83 -1217 0
82 83 1217 0
1216 -1218 0
1217 -1218 0
-1216 -1217 1218 0
-8 -1219 0
24 -1219 0
8 -24 1219 0
8 -1220 0
-24 -1220 0
-8 24 1220 0
-85 -1221 0
-86 -1221 0
85 86 1221 0
-87 -1222 0
1214 -1222 0
87 -1214 1222 0
-84 -1223 0
-88 -1223 0
84 88 1223 0
-84 -1224 0
89 -1224 0
84 -89 1224 0
84 -1225 0
-89 -1225 0
-84 89 1225 0
-90 -1226 0
-91 -1226 0
90 91 1226 0
-3 -1227 0
19 -1227 0
3 -19 1227 0
3 -1228 0
-19 -1228 0
-3 19 1228 0
-93 -1229 0
-94 -1229 0
93 94 1229 0
-2 -1230 0
18 -1230 0
2 -18 1230 0
2 -1231 0
-18 -1231 0
-2 18 1231 0
-96 -1232 0
-97 -1232 0
96 97 1232 0
-1 -1233 0
17 -1233 0
1 -17 1233 0
1 -1234 0
-17 -1234 0
-1 17 1234 0
-99 -1235 0
-100 -1235 0
99 100 1235 0
-20 -1236 0
-102 -1236 0
20 102 1236 0
-19 -1237 0
-104 -1237 0
19 104 1237 0
-18 -1238 0
-106 -1238 0
18 106 1238 0
-17 -1239 0
-108 -1239 0
17 108 1239 0
-101 -1240 0
-107 -1240 0
101 107 1240 0
-98 -1241 0
-101 -1241 0
98 101 1241 0
-105 -1242 0
1241 -1242 0
105 -1241 1242 0
-95 -1243 0
1241 -1243 0
95 -1241 1243 0
-103 -1244 0
1243 -1244 0
103 -1243 1244 0
-110 -1245 0
-111 -1245 0
110 111 1245 0
-112 -1246 0
-113 -1246 0
112 113 1246 0
1245 -1247 0
1246 -1247 0
-1245 -1246 1247 0
-4 -1248 0
20 -1248 0
4 -20 1248 0
4 -1249 0
-20 -1249 0
-4 20 1249 0
-115 -1250 0
-116 -1250 0
115 116 1250 0
-117 -1251 0
1243 -1251 0
117 -1243 1251 0
-114 -1252 0
-118 -1252 0
114 118 1252 0
-114 -1253 0
119 -1253 0
114 -119 1253 0
114 -1254 0
-119 -1254 0
-114 119 1254 0
-120 -1255 0
-121 -1255 0
120 121 1255 0
-15 -1256 0
31 -1256 0
15 -31 1256 0
15 -1257 0
-31 -1257 0
-15 31 1257 0
-123 -1258 0
-124 -1258 0
123 124 1258 0
-14 -1259 0
30 -1259 0
14 -30 1259 0
14 -1260 0
-30 -1260 0
-14 30 1260 0
-126 -1261 0
-127 -1261 0
126 127 1261 0
-13 -1262 0
29 -1262 0
13 -29 1262 0
13 -1263 0
-29 -1263 0
-13 29 1263 0
-129 -1264 0
-130 -1264 0
129 130 1264 0
-32 -1265 0
-132 -1265 0
32 132 1265 0
-31 -1266 0
-134 -1266 0
31 134 1266 0
-30 -1267 0
-136 -1267 0
30 136 1267 0
-29 -1268 0
-138 -1268 0
29 138 1268 0
-131 -1269 0
-137 -1269 0
131 137 1269 0
-128 -1270 0
-131 -1270 0
128 131 1270 0
-135 -1271 0
1270 -1271 0
135 -1270 1271 0
-125 -1272 0
1270 -1272 0
125 -1270 1272 0
-133 -1273 0
1272 -1273 0
133 -1272 1273 0
-140 -1274 0
-141 -1274 0
140 141 1274 0
-142 -1275 0
-143 -1275 0
142 143 1275 0
1274 -1276 0
1275 -1276 0
-1274 -1275 1276 0
-16 -1277 0
32 -1277 0
16 -32 1277 0
16 -1278 0
-32 -1278 0
-16 32 1278 0
-145 -1279 0
-146 -1279 0
145 146 1279 0
-147 -1280 0
1272 -1280 0
147 -1272 1280 0
-144 -1281 0
-148 -1281 0
144 148 1281 0
-149 -1282 0
-150 -1282 0
149 150 1282 0
-59 -1283 0
-152 -1283 0
59 152 1283 0
-89 -1284 0
-154 -1284 0
89 154 1284 0
-119 -1285 0
-156 -1285 0
119 156 1285 0
-122 -1286 0
-155 -1286 0
122 155 1286 0
-92 -1287 0
-122 -1287 0
92 122 1287 0
-153 -1288 0
1287 -1288 0
153 -1287 1288 0
-62 -1289 0
1287 -1289 0
62 -1287 1289 0
-151 -1290 0
1289 -1290 0
151 -1289 1290 0
-158 -1291 0
-159 -1291 0
158 159 1291 0
-160 -1292 0
-161 -1292 0
160 161 1292 0
1291 -1293 0
1292 -1293 0
-1291 -1292 1293 0
-144 -1294 0
149 -1294 0
144 -149 1294 0
144 -1295 0
-149 -1295 0
-144 149 1295 0
-163 -1296 0
-164 -1296 0
163 164 1296 0
-165 -1297 0
1289 -1297 0
165 -1289 1297 0
-162 -1298 0
-166 -1298 0
162 166 1298 0
-179 -1299 0
-180 -1299 0
179 180 1299 0
-182 -1300 0
-183 -1300 0
182 183 1300 0
-185 -1301 0
-186 -1301 0
185 186 1301 0
-12 -1302 0
-28 -1302 0
12 28 1302 0
-27 -1303 0
-189 -1303 0
27 189 1303 0
-26 -1304 0
-191 -1304 0
26 191 1304 0
-25 -1305 0
-193 -1305 0
25 193 1305 0
-187 -1306 0
-192 -1306 0
187 192 1306 0
-184 -1307 0
-187 -1307 0
184 187 1307 0
-190 -1308 0
1307 -1308 0
190 -1307 1308 0
-181 -1309 0
1307 -1309 0
181 -1307 1309 0
-188 -1310 0
1309 -1310 0
188 -1309 1310 0
-195 -1311 0
-196 -1311 0
195 196 1311 0
-197 -1312 0
-198 -1312 0
197 198 1312 0
1311 -1313 0
1312 -1313 0
-1311 -1312 1313 0
-200 -1314 0
-201 -1314 0
200 201 1314 0
-202 -1315 0
1309 -1315 0
202 -1309 1315 0
-199 -1316 0
-203 -1316 0
199 203 1316 0
-199 -1317 0
204 -1317 0
199 -204 1317 0
199 -1318 0
-204 -1318 0
-199 204 1318 0
-205 -1319 0
-206 -1319 0
205 206 1319 0
-208 -1320 0
-209 -1320 0
208 209 1320 0
-211 -1321 0
-212 -1321 0
211 212 1321 0
-214 -1322 0
-215 -1322 0
214 215 1322 0
-24 -1323 0
-217 -1323 0
24 217 1323 0
-23 -1324 0
-219 -1324 0
23 219 1324 0
-22 -1325 0
-221 -1325 0
22 221 1325 0
-21 -1326 0
-223 -1326 0
21 223 1326 0
-216 -1327 0
-222 -1327 0
216 222 1327 0
-213 -1328 0
-216 -1328 0
213 216 1328 0
-220 -1329 0
1328 -1329 0
220 -1328 1329 0
-210 -1330 0
1328 -1330 0
210 -1328 1330 0
-218 -1331 0
1330 -1331 0
218 -1330 1331 0
-225 -1332 0
-226 -1332 0
225 226 1332 0
-227 -1333 0
-228 -1333 0
227 228 1333 0
1332 -1334 0
1333 -1334 0
-1332 -1333 1334 0
-230 -1335 0
-231 -1335 0
230 231 1335 0
-232 -1336 0
1330 -1336 0
232 -1330 1336 0
-229 -1337 0
-233 -1337 0
229 233 1337 0
-229 -1338 0
234 -1338 0
229 -234 1338 0
229 -1339 0
-234 -1339 0
-229 234 1339 0
-235 -1340 0
-236 -1340 0
235 236 1340 0
-238 -1341 0
-239 -1341 0
238 239 1341 0
-241 -1342 0
-242 -1342 0
241 242 1342 0
-244 -1343 0
-245 -1343 0
244 245 1343 0
-20 -1344 0
-247 -1344 0
20 247 1344 0
-19 -1345 0
-249 -1345 0
19 249 1345 0
-18 -1346 0
-251 -1346 0
18 251 1346 0
-17 -1347 0
-253 -1347 0
17 253 1347 0
-246 -1348 0
-252 -1348 0
246 252 1348 0
-243 -1349 0
-246 -1349 0
243 246 1349 0
-250 -1350 0
1349 -1350 0
250 -1349 1350 0
-240 -1351 0
1349 -1351 0
240 -1349 1351 0
-248 -1352 0
1351 -1352 0
248 -1351 1352 0
-255 -1353 0
-256 -1353 0
255 256 1353 0
-257 -1354 0
-258 -1354 0
257 258 1354 0
1353 -1355 0
1354 -1355 0
-1353 -1354 1355 0
-260 -1356 0
-261 -1356 0
260 261 1356 0
-262 -1357 0
1351 -1357 0
262 -1351 1357 0
-259 -1358 0
-263 -1358 0
259 263 1358 0
-259 -1359 0
264 -1359 0
259 -264 1359 0
259 -1360 0
-264 -1360 0
-259 264 1360 0
-265 -1361 0
-266 -1361 0
265 266 1361 0
-268 -1362 0
-269 -1362 0
268 269 1362 0
-271 -1363 0
-272 -1363 0
271 272 1363 0
-274 -1364 0
-275 -1364 0
274 275 1364 0
-32 -1365 0
-277 -1365 0
32 277 1365 0
-31 -1366 0
-279 -1366 0
31 279 1366 0
-30 -1367 0
-281 -1367 0
30 281 1367 0
-29 -1368 0
-283 -1368 0
29 283 1368 0
-276 -1369 0
-282 -1369 0
276 282 1369 0
-273 -1370 0
-276 -1370 0
273 276 1370 0
-280 -1371 0
1370 -1371 0
280 -1370 1371 0
-270 -1372 0
1370 -1372 0
270 -1370 1372 0
-278 -1373 0
1372 -1373 0
278 -1372 1373 0
-285 -1374 0
-286 -1374 0
285 286 1374 0
-287 -1375 0
-288 -1375 0
287 288 1375 0
1374 -1376 0
1375 -1376 0
-1374 -1375 1376 0
-290 -1377 0
-291 -1377 0
290 291 1377 0
-292 -1378 0
1372 -1378 0
292 -1372 1378 0
-289 -1379 0
-293 -1379 0
289 293 1379 0
-294 -1380 0
-295 -1380 0
294 295 1380 0
-204 -1381 0
-297 -1381 0
204 297 1381 0
-234 -1382 0
-299 -1382 0
234 299 1382 0
-264 -1383 0
-301 -1383 0
264 301 1383 0
-289 -1384 0
294 -1384 0
289 -294 1384 0
289 -1385 0
-294 -1385 0
-289 294 1385 0
-303 -1386 0
-304 -1386 0
303 304 1386 0
306 -1387 0
307 -1387 0
-306 -307 1387 0
308 -1388 0
1387 -1388 0
-308 -1387 1388 0
207 -1389 0
-1319 -1389 0
-207 1319 1389 0
-204 -1390 0
-1389 -1390 0
204 1389 1390 0
-171 -1391 0
-1390 -1391 0
171 1390 1391 0
171 -1392 0
-206 -1392 0
-171 206 1392 0
-204 -1393 0
-1392 -1393 0
204 1392 1393 0
-207 -1394 0
-1393 -1394 0
207 1393 1394 0
-1391 -1395 0
-1394 -1395 0
1391 1394 1395 0
-172 -1396 0
237 -1396 0
172 -237 1396 0
-1340 -1397 0
-1396 -1397 0
1340 1396 1397 0
172 -1398 0
-237 -1398 0
-172 237 1398 0
1340 -1399 0
-1398 -1399 0
-1340 1398 1399 0
-1397 -1400 0
-1399 -1400 0
1397 1399 1400 0
173 -1401 0
-267 -1401 0
-173 267 1401 0
-173 -1402 0
267 -1402 0
173 -267 1402 0
-1361 -1403 0
1402 -1403 0
1361 -1402 1403 0
-1401 -1404 0
-1403 -1404 0
1401 1403 1404 0
-174 -1405 0
-296 -1405 0
174 296 1405 0
174 -1406 0
296 -1406 0
-174 -296 1406 0
-1405 -1407 0
-1406 -1407 0
1405 1406 1407 0
-175 -1408 0
-298 -1408 0
175 298 1408 0
175 -1409 0
298 -1409 0
-175 -298 1409 0
-1408 -1410 0
-1409 -1410 0
1408 1409 1410 0
-176 -1411 0
-300 -1411 0
176 300 1411 0
176 -1412 0
300 -1412 0
-176 -300 1412 0
-1411 -1413 0
-1412 -1413 0
1411 1412 1413 0
-177 -1414 0
302 -1414 0
177 -302 1414 0
177 -1415 0
-264 -1415 0
-177 264 1415 0
266 -1416 0
-302 -1416 0
-266 302 1416 0
1415 -1417 0
1416 -1417 0
-1415 -1416 1417 0
-1414 -1418 0
-1417 -1418 0
1414 1417 1418 0
-178 -1419 0
-305 -1419 0
178 305 1419 0
178 -1420 0
305 -1420 0
-178 -305 1420 0
-1419 -1421 0
-1420 -1421 0
1419 1420 1421 0
